NAME : XML100_3161_04
DIMENSION : 101
NB_CLUSTERS : 26
CLUSTERING_ALG : KMeans
CLUSTERING_PARAMS : k(27)
CLUSTERS
1 0
2 5 23 45 67 78 88
3 43 48 99
4 9 28 31 50 54 55 76
5 15 68 71 90
6 10 24 34 46 64 75 80
7 3 26 29
8 18 58 60
9 8 19 33 62 69 86 98
10 14 25 35 51 63 82
11 79 91 95
12 66 72 73 87
13 12 21 89 96
14 40 83
15 2 42 94
16 11 16 61
17 17 30 41 47 53 65 81
18 38 97
19 22 39 59 85 100
20 44 52 92
21 37 57
22 6 13 49 56
23 27 32
24 20 77 93
25 4 70
26 1 7 36 74 84
EOF